LengthSchedulingHorizon=9191;
nAttributes=2;
SetupCosts=[[0, 0], [2, 3], [3, 2]];
SetupTimes=[[0, 0], [2, 3], [3, 2]];
nMachines=5;
MinCap=[0, 0, 0, 0, 0];
MaxCap=[74, 8, 51, 40, 10];

initState=[1, 2, 1, 2, 1];
nShifts=4;
ShiftStartTimes = [[0, 0, 5861, 6312], [0, 1631, 2223, 5969], [0, 0, 1578, 7046], [3820, 4393, 5535, 9070], [0, 0, 0, 455]];
ShiftEndTimes = [[0, 0, 6230, 8729], [0, 1953, 5732, 7980], [0, 0, 3983, 8192], [4024, 4743, 6472, 9165], [0, 0, 0, 7651]];
nJobs=250;
EligibleMachines = [{2, 5}, {1, 2, 5}, {3, 4, 5}, {2, 4, 5}, {1, 2, 4}, {2, 4, 5}, {1, 2, 4, 5}, {4}, {2, 4}, {3, 4, 5}, {1, 2, 3, 5}, {1, 2, 4, 5}, {1, 2, 3, 5}, {2, 3, 5}, {1, 3, 4}, {1, 2, 3}, {3, 4, 5}, {2, 3, 5}, {1, 2, 3, 5}, {1, 2, 3, 4}, {1, 2, 3, 4}, {1, 2, 3, 4, 5}, {2, 3, 4, 5}, {2, 3, 5}, {2, 5}, {2, 3, 4}, {3, 4, 5}, {4}, {2, 5}, {1, 5}, {1, 2, 5}, {2}, {1, 4, 5}, {1, 2, 3, 4, 5}, {3, 4}, {1, 3}, {2, 3, 5}, {1, 4, 5}, {1, 3}, {1, 2}, {1, 4, 5}, {2, 3, 4}, {1, 5}, {3}, {1, 2, 5}, {2, 3, 4, 5}, {1, 4, 5}, {1, 3, 4, 5}, {1, 2, 3, 5}, {1, 2, 3, 4}, {3, 4, 5}, {1, 2, 4, 5}, {3, 4}, {1, 2, 3, 4, 5}, {3, 4, 5}, {1, 2, 4, 5}, {3, 4}, {4}, {4, 5}, {1, 2, 3, 4, 5}, {1, 5}, {1, 2, 4}, {3, 4, 5}, {2, 4, 5}, {3, 4, 5}, {2, 4, 5}, {2, 3, 5}, {1, 3, 4}, {1, 2, 4}, {2, 4, 5}, {3, 5}, {1}, {1, 5}, {2, 3, 4}, {1, 2}, {1, 2, 3, 5}, {3}, {2, 4, 5}, {2, 3}, {3, 4, 5}, {2, 4}, {1, 3, 4, 5}, {3, 5}, {1, 2, 3, 5}, {3, 4, 5}, {2, 5}, {1}, {2, 4}, {1, 3, 4}, {1, 3, 4}, {1}, {4}, {2, 5}, {1, 3, 5}, {1, 4}, {2, 4}, {2, 4, 5}, {2, 3, 5}, {1, 2, 4, 5}, {2, 3}, {1, 2, 4}, {2, 3, 5}, {1, 4, 5}, {2, 3}, {1, 2, 3, 4}, {2, 3, 4, 5}, {1, 3, 4}, {3, 4}, {1, 2, 3}, {3, 4, 5}, {2, 4, 5}, {1}, {1, 3, 4}, {1, 2, 3, 4}, {1, 2, 4, 5}, {2, 3, 4}, {3, 4, 5}, {1, 3, 4}, {1, 2, 3}, {1, 3, 4, 5}, {3, 4, 5}, {1, 2}, {1, 2, 3, 4}, {2, 3, 4, 5}, {1, 3, 4, 5}, {1, 3, 4}, {2, 3, 5}, {1, 2, 4, 5}, {1, 2, 3, 4, 5}, {3, 4}, {1, 3, 4, 5}, {2, 3, 5}, {1, 2, 3, 4}, {1, 3, 4}, {1, 2, 3, 5}, {1, 2, 4}, {1, 4, 5}, {1, 2, 5}, {1, 2, 5}, {3, 4, 5}, {2, 4, 5}, {1, 3, 4, 5}, {1, 2, 3, 4}, {1, 3}, {1, 4, 5}, {1, 2, 3, 5}, {1, 4, 5}, {1, 4, 5}, {2, 3, 4, 5}, {1, 2, 4}, {1, 3}, {2, 4, 5}, {1, 2, 4}, {1, 2, 3, 4, 5}, {2, 4}, {2, 3, 4, 5}, {2, 5}, {1, 2, 3, 4, 5}, {1, 3, 5}, {2, 3}, {1, 2, 4, 5}, {2, 3}, {1, 4, 5}, {2, 5}, {4}, {2, 3}, {1, 2, 5}, {2, 3, 5}, {2, 3, 4}, {1, 3, 5}, {1, 2, 5}, {1, 4, 5}, {2, 4, 5}, {2, 3, 4}, {1, 2, 5}, {1, 3, 4, 5}, {1, 3}, {2, 3, 4, 5}, {1, 2, 4, 5}, {1, 2, 4, 5}, {2, 4, 5}, {1, 2, 3, 4, 5}, {1, 3, 4, 5}, {2, 4}, {1, 4}, {2, 4, 5}, {2, 3, 4}, {3, 4, 5}, {1, 4, 5}, {1, 4}, {1, 3, 4, 5}, {4, 5}, {3, 5}, {2, 3, 4}, {1, 2, 3, 4}, {1, 3, 4}, {2, 5}, {2, 5}, {2, 3}, {2, 3, 4}, {2, 5}, {1, 3, 4, 5}, {1, 3, 4, 5}, {1, 2, 3, 4, 5}, {2, 3, 4}, {2, 3, 4, 5}, {1, 2, 5}, {2, 4, 5}, {1, 2, 3, 4, 5}, {3, 4, 5}, {2, 3, 4, 5}, {3, 5}, {1, 2, 4}, {1}, {1, 2, 3, 4, 5}, {2, 3, 4}, {1, 3, 4}, {1, 2, 3, 4}, {1, 5}, {1, 3, 4, 5}, {1, 2, 4}, {2, 3, 4}, {1, 2, 3, 4, 5}, {2, 3}, {1, 2, 4, 5}, {1, 3, 5}, {1, 4, 5}, {4, 5}, {1, 2, 3, 4, 5}, {2, 3, 4}, {1, 3, 4, 5}, {2, 5}, {1, 2, 3}, {1, 2, 4}, {1, 4}, {1, 3}, {5}, {2, 3, 4, 5}, {1, 2, 5}, {1, 2, 3, 4}, {2, 3, 5}, {5}, {1, 2, 3, 4}, {2, 5}, {2, 3, 5}, {1, 2, 4, 5}, {1, 2, 5}, {1, 2, 4, 5}, {3, 5}, {1, 2, 3, 4, 5}];
EarliestStart=[490, 317, 467, 64, 46, 263, 266, 93, 469, 254, 438, 541, 514, 638, 299, 54, 393, 181, 70, 96, 442, 73, 356, 412, 677, 28, 608, 407, 558, 24, 113, 356, 555, 437, 327, 47, 475, 276, 500, 12, 642, 103, 682, 607, 616, 594, 512, 608, 679, 62, 497, 46, 471, 666, 293, 416, 650, 54, 76, 17, 345, 549, 225, 444, 140, 82, 676, 76, 310, 251, 269, 117, 371, 57, 143, 338, 81, 439, 486, 83, 205, 0, 418, 495, 217, 67, 574, 578, 144, 600, 86, 421, 199, 482, 357, 93, 567, 237, 466, 534, 607, 435, 297, 427, 483, 380, 364, 413, 522, 644, 335, 211, 258, 683, 502, 344, 131, 420, 227, 73, 197, 97, 622, 399, 165, 538, 607, 579, 390, 50, 461, 534, 662, 642, 165, 459, 392, 680, 11, 527, 392, 161, 55, 189, 265, 565, 163, 206, 669, 12, 652, 147, 9, 393, 336, 510, 502, 587, 262, 635, 462, 475, 22, 472, 183, 490, 238, 305, 517, 42, 642, 140, 408, 390, 370, 36, 41, 433, 134, 289, 375, 400, 599, 378, 88, 313, 524, 268, 305, 345, 646, 494, 418, 66, 64, 607, 138, 273, 5, 464, 327, 547, 379, 626, 60, 511, 428, 309, 23, 300, 468, 69, 453, 662, 260, 62, 565, 334, 384, 559, 655, 660, 0, 171, 85, 147, 411, 341, 325, 452, 587, 458, 427, 359, 652, 517, 21, 662, 318, 266, 574, 215, 244, 4, 567, 577, 41, 446, 496, 2];
LatestEnd=[499, 324, 490, 94, 49, 282, 284, 100, 505, 277, 443, 581, 547, 662, 323, 62, 442, 207, 71, 144, 486, 82, 369, 426, 684, 42, 615, 408, 569, 57, 126, 360, 572, 444, 332, 64, 479, 279, 514, 30, 674, 121, 687, 631, 624, 602, 531, 627, 698, 76, 499, 55, 479, 678, 307, 418, 669, 58, 100, 24, 350, 567, 236, 471, 158, 95, 708, 83, 354, 262, 272, 137, 386, 79, 150, 358, 89, 448, 492, 93, 217, 4, 432, 500, 237, 77, 577, 611, 152, 617, 98, 442, 211, 486, 377, 100, 577, 243, 469, 547, 611, 444, 329, 435, 519, 397, 394, 424, 556, 677, 379, 229, 274, 691, 521, 351, 133, 469, 234, 77, 205, 101, 650, 407, 199, 559, 615, 584, 411, 72, 476, 557, 672, 665, 179, 470, 432, 684, 31, 565, 432, 177, 67, 201, 267, 575, 181, 220, 675, 23, 655, 149, 23, 414, 350, 521, 529, 606, 289, 638, 473, 488, 29, 482, 195, 528, 244, 330, 530, 51, 653, 154, 421, 400, 377, 43, 84, 466, 170, 305, 391, 407, 612, 398, 92, 352, 562, 270, 312, 388, 660, 528, 429, 98, 94, 643, 150, 277, 44, 491, 355, 556, 391, 632, 70, 520, 455, 331, 31, 321, 495, 88, 485, 670, 265, 98, 586, 346, 423, 573, 665, 672, 26, 175, 115, 150, 417, 371, 354, 454, 608, 460, 439, 369, 656, 533, 23, 668, 330, 304, 591, 232, 262, 11, 580, 596, 71, 452, 515, 10];
MinTime=[6, 7, 7, 9, 2, 8, 10, 3, 10, 7, 2, 9, 10, 6, 5, 3, 10, 10, 1, 10, 10, 3, 3, 8, 4, 7, 3, 1, 5, 9, 5, 1, 6, 2, 2, 5, 1, 1, 7, 5, 9, 6, 2, 7, 2, 2, 7, 5, 7, 8, 2, 3, 4, 6, 7, 1, 5, 3, 5, 3, 3, 6, 4, 8, 4, 8, 9, 5, 10, 4, 1, 6, 4, 7, 6, 5, 7, 2, 6, 4, 5, 1, 9, 2, 7, 3, 1, 10, 5, 6, 7, 7, 7, 3, 10, 2, 5, 5, 3, 8, 2, 9, 10, 3, 8, 7, 9, 4, 8, 9, 10, 5, 4, 2, 8, 7, 2, 10, 4, 1, 3, 4, 6, 8, 9, 10, 2, 3, 9, 7, 7, 7, 6, 5, 3, 9, 9, 2, 7, 9, 10, 10, 4, 5, 2, 6, 10, 3, 3, 3, 1, 1, 4, 5, 3, 5, 7, 4, 6, 1, 8, 4, 4, 3, 7, 9, 4, 8, 9, 2, 10, 6, 5, 4, 4, 2, 9, 7, 9, 6, 6, 5, 4, 9, 1, 9, 10, 2, 2, 9, 6, 8, 3, 9, 8, 10, 4, 1, 8, 7, 6, 2, 8, 3, 10, 4, 9, 10, 7, 6, 9, 5, 7, 2, 4, 8, 7, 5, 10, 4, 4, 3, 10, 3, 8, 1, 2, 9, 7, 2, 5, 1, 5, 8, 2, 6, 1, 4, 4, 8, 6, 5, 4, 3, 3, 7, 9, 2, 4, 2];
MaxTime=[7, 10, 10, 9, 8, 8, 10, 6, 10, 7, 9, 10, 10, 10, 9, 10, 10, 10, 5, 10, 10, 5, 5, 9, 9, 9, 8, 7, 10, 9, 5, 4, 10, 8, 7, 7, 9, 5, 9, 8, 9, 9, 7, 7, 4, 3, 10, 10, 10, 9, 2, 8, 5, 7, 9, 10, 5, 4, 7, 3, 10, 10, 6, 8, 4, 10, 9, 9, 10, 10, 3, 8, 5, 9, 7, 6, 9, 3, 7, 4, 7, 6, 9, 5, 9, 8, 3, 10, 10, 6, 7, 7, 8, 3, 10, 7, 6, 9, 10, 8, 4, 9, 10, 5, 8, 9, 9, 5, 10, 9, 10, 7, 8, 9, 8, 9, 5, 10, 8, 9, 9, 9, 8, 8, 9, 10, 5, 3, 9, 8, 8, 8, 6, 8, 10, 9, 10, 2, 9, 10, 10, 10, 6, 9, 10, 10, 10, 8, 10, 6, 2, 10, 9, 5, 4, 6, 10, 8, 6, 2, 9, 6, 10, 3, 8, 10, 6, 10, 10, 7, 10, 6, 7, 5, 8, 3, 9, 8, 10, 8, 7, 9, 8, 9, 7, 10, 10, 6, 5, 10, 6, 8, 8, 9, 8, 10, 8, 7, 10, 9, 6, 9, 9, 6, 10, 7, 10, 10, 8, 9, 10, 9, 10, 3, 7, 9, 7, 7, 10, 8, 6, 7, 10, 9, 9, 4, 2, 10, 8, 10, 5, 6, 10, 10, 7, 9, 10, 7, 10, 8, 7, 9, 6, 8, 7, 8, 9, 4, 9, 2];
JobSize=[1, 4, 5, 1, 3, 5, 1, 3, 2, 4, 1, 1, 1, 2, 2, 1, 4, 2, 4, 5, 4, 5, 1, 4, 4, 4, 2, 5, 1, 1, 1, 1, 1, 5, 3, 5, 4, 5, 4, 3, 3, 3, 5, 4, 1, 1, 1, 3, 2, 2, 4, 4, 2, 1, 4, 4, 2, 3, 5, 1, 4, 3, 2, 1, 3, 1, 4, 3, 4, 2, 3, 3, 3, 4, 1, 1, 4, 1, 4, 4, 2, 4, 1, 1, 5, 3, 2, 4, 1, 3, 3, 5, 4, 4, 3, 2, 3, 5, 4, 2, 2, 5, 1, 3, 4, 1, 2, 2, 3, 3, 1, 3, 5, 5, 4, 2, 3, 2, 1, 1, 4, 1, 2, 4, 4, 4, 5, 1, 4, 5, 3, 5, 2, 1, 5, 1, 1, 5, 4, 5, 2, 3, 3, 1, 1, 3, 4, 1, 4, 2, 1, 5, 4, 4, 3, 5, 3, 4, 3, 2, 3, 2, 1, 2, 1, 3, 4, 4, 3, 4, 4, 1, 2, 1, 3, 1, 2, 4, 5, 4, 5, 5, 3, 1, 5, 2, 3, 1, 3, 3, 4, 2, 1, 5, 5, 1, 4, 1, 3, 2, 1, 3, 5, 2, 2, 5, 2, 4, 4, 5, 4, 1, 2, 4, 2, 4, 3, 4, 1, 5, 2, 1, 4, 2, 1, 2, 4, 4, 5, 3, 2, 4, 2, 5, 5, 4, 4, 5, 1, 5, 4, 5, 2, 4, 1, 5, 5, 1, 4, 2];
Attribute=[1, 2, 1, 2, 2, 2, 1, 2, 2, 1, 2, 1, 2, 2, 2, 2, 1, 1, 2, 1, 1, 2, 1, 2, 2, 1, 1, 1, 2, 1, 1, 1, 1, 2, 1, 1, 1, 1, 2, 2, 2, 1, 2, 1, 2, 2, 1, 1, 2, 2, 2, 2, 1, 2, 1, 1, 1, 2, 2, 1, 1, 1, 2, 2, 2, 2, 1, 1, 2, 2, 2, 2, 2, 2, 2, 1, 2, 2, 1, 2, 2, 1, 2, 2, 1, 2, 2, 2, 1, 1, 1, 1, 1, 2, 2, 1, 1, 1, 1, 1, 1, 1, 1, 2, 2, 1, 2, 2, 2, 2, 1, 1, 2, 2, 1, 1, 1, 2, 2, 2, 1, 1, 2, 1, 1, 2, 2, 1, 2, 1, 2, 1, 1, 2, 2, 1, 2, 2, 2, 1, 2, 1, 2, 2, 2, 2, 1, 2, 1, 1, 2, 2, 1, 1, 1, 2, 2, 2, 2, 1, 2, 2, 1, 2, 1, 1, 2, 1, 1, 1, 1, 1, 2, 1, 2, 2, 1, 2, 1, 2, 1, 1, 1, 2, 1, 2, 1, 2, 1, 1, 2, 1, 2, 1, 1, 2, 1, 2, 1, 2, 2, 1, 1, 2, 2, 2, 1, 1, 1, 2, 2, 1, 2, 2, 1, 2, 2, 1, 1, 1, 2, 1, 1, 2, 1, 1, 2, 2, 1, 2, 2, 2, 2, 2, 1, 2, 2, 2, 1, 2, 2, 1, 1, 1, 1, 2, 2, 1, 1, 1];

upper_bound_integer_objective=7500;
mult_factor_total_runtime=2;
mult_factor_finished_toolate=12;
mult_factor_total_setuptimes=0;
mult_factor_total_setupcosts=2;
running_time_bound=1377;
min_duration=1;
max_duration=10;
max_setup_time=3;
max_setup_cost=3;
